#
# 03_H2O_3 scanfunc/aug-cc-pvt(+d)z
#
! scanfunc d3bj aug-cc-pvt(+d)z def2/j grid4 nofinalgrid opt xyzfile numfreq

*xyz 0 1
O	-1.476811	-0.647642	-0.082126
H	-0.613415	-1.087457	-0.037065
H	-2.026236	-1.086841	0.568502
O	1.305672	-0.945117	-0.091536
H	1.973931	-1.196903	0.547209
H	1.22684	0.019839	-0.021857
O	0.169678	1.599733	0.108456
H	-0.629586	1.051269	0.060063
H	0.080159	2.244313	-0.595195
*

%maxcore 5000

%pal
nprocs 24
end

