#
# 04_H2O_4 dsd-blyp/aug-cc-pvt(+d)z
#
! rijk ri-dsd-blyp/2013 d3bj aug-cc-pvt(+d)z def2/jk def2-tzvp/c grid4 nofinalgrid opt xyzfile numfreq

*xyz 0 1
O	1.372659		-1.372658	0.015734
H	0.406261		-1.511316	-0.008945
H	1.683553		-1.872433	0.772059
O	-1.372658		-1.372658	-0.015734
H	-1.511316		-0.406261	0.008945
H	-1.872433		-1.683553	-0.772059
O	-1.372658		1.372659	0.015734
H	-0.406261		1.511317	-0.008945
H	-1.683553		1.872433	0.772059
O	1.372659		1.372659	-0.015734
H	1.511317		0.406261	0.008945
H	1.872433		1.683553	-0.772059
*

%maxcore 5000

%pal
nprocs 24
end

