#
# 01_H2O b2-plyp/aug-cc-pvt(+d)z
#
! rijk ri-b2plyp d3bj aug-cc-pvt(+d)z def2/jk def2-tzvp/c grid4 nofinalgrid opt xyzfile numfreq

*xyz 0 1
O	0	0	0.12434822
H	0	-1.43139324	-0.98674827
H	0	1.43139324	-0.98674827
*

%maxcore 5000

%pal
nprocs 24
end

