#
# 09_H2O_6_prism b2-plyp/aug-cc-pvt(+d)z
#
! rijk ri-b2plyp d3bj aug-cc-pvt(+d)z def2/jk def2-tzvp/c grid4 nofinalgrid opt xyzfile numfreq

*xyz 0 1
O	-1.511782	-0.232325	1.434522
H	-0.6139	-0.631798	1.542476
H	-2.015087	-0.484249	2.21021
O	-1.744551	-0.350365	-1.322141
H	-1.89002	-0.475498	-0.368433
H	-2.508917	-0.726304	-1.761973
O	-0.568902	2.010658	-0.079448
H	-0.9578	1.52123	0.658817
H	-0.991476	1.598457	-0.84212
O	0.972064	-1.194842	1.413465
H	0.986177	-1.536208	0.500658
H	1.544338	-0.420911	1.334663
O	0.983916	-1.359847	-1.372465
H	0.077993	-1.073694	-1.552782
H	1.480193	-0.535792	-1.283351
O	2.003223	1.063257	-0.092296
H	1.144078	1.530799	-0.098089
H	2.67269	1.741694	-0.193152
*

%maxcore 5000

%pal
nprocs 24
end

